69
[[-1, 0, 0, 0, 0, 0, 29301, 0, 37577, 0, 0, 0, 0, 0, 0, 0, 0, 0, 0, 0, 0, 0, 31997, 22608, 0, 0, 0, 0, 0, 0, 0, 0, 0, 25635, 0, 0, 0, 0, 33451, 44426, 0, 0, 0, 25421, 0, 0, 0, 20110, 26127, 0, 0, 0, 0, 0, 26054, 0, 0, 0, 0, 11243, 0, 0, 0, 0, 0, 0, 0, 0, 42890],[0, -1, 0, 0, 0, 0, 0, 0, 38739, 0, 0, 41138, 0, 15493, 0, 0, 0, 0, 0, 0, 0, 0, 0, 0, 0, 0, 0, 33160, 0, 0, 0, 30165, 0, 0, 0, 7150, 28064, 0, 0, 0, 0, 0, 0, 0, 0, 0, 0, 0, 0, 0, 0, 0, 0, 10518, 0, 0, 0, 0, 0, 0, 0, 39928, 0, 0, 0, 24699, 0, 0, 0],[0, 0, -1, 0, 0, 0, 0, 0, 0, 22742, 0, 0, 0, 0, 36474, 0, 38000, 0, 0, 14505, 36822, 0, 29391, 0, 0, 0, 0, 0, 36301, 0, 0, 0, 0, 0, 0, 0, 0, 0, 0, 0, 1989291495, 0, 0, 0, 0, 0, 29102, 0, 38941, 0, 0, 0, 0, 38204, 0, 0, 0, 0, 27420, 0, 39332, 0, 0, 0, 33530, 0, 0, 0, 26941],[0, 0, 0, -1, 0, 41529, 0, 0, 0, 0, 0, 27382, 0, 0, 0, 0, 0, 1445505309, 44170, 0, 29128, 45601, 34136, 0, 0, 0, 0, 0, 0, 0, 38740, 33332, 0, 0, 0, 0, 20316, 0, 15129, 0, 45607, 31866, 0, 0, 0, 0, 0, 0, 0, 0, 0, 14771, 0, 0, 0, 29798, 0, 0, 0, 0, 0, 0, 45026, 0, 21703, 0, 0, 0, 0],[0, 0, 0, 0, -1, 0, 0, 0, 0, 0, 0, 0, 32958, 0, 0, 0, 43253, 0, 0, 0, 0, 20201, 0, 0, 0, 0, 13084, 0, 29601, 0, 0, 0, 0, 41185, 0, 0, 0, 0, 0, 0, 0, 0, 0, 0, 0, 0, 0, 39145, 0, 12635, 0, 33622, 0, 0, 0, 0, 39449, 156427837, 0, 38461, 0, 0, 0, 43839, 0, 0, 34041, 22485, 0],[0, 0, 0, 41529, 0, -1, 0, 0, 0, 0, 0, 0, 36370, 0, 9989, 24426, 0, -705146090, 1987801098, 0, 33364, 0, 0, 0, 30276, 0, 0, 0, 0, 0, 0, 31203, 38926, 0, 34061, 23948, 0, 35272, 0, 0, 0, 8789, 0, 0, 17896, 0, 0, 0, 0, 0, 0, 0, 0, 0, 0, 0, 32968, 0, 0, 27931, 0, 0, 1827847339, 0, 0, 0, 0, 0, 0],[29301, 0, 0, 0, 0, 0, -1, 0, 0, 0, 0, 0, 0, 24839, 43345, 41304, 39460, 0, 43590, 0, 15804, 0, 0, 25932, 0, 0, 0, 0, 0, 0, 0, 0, 0, 1727478958, 0, 0, 44770, 0, 0, 0, 0, 0, 0, 0, 0, 0, 25972, 0, 859319257, 0, 0, 0, 38034, 0, 0, 0, 0, 0, 0, 0, 0, 0, 0, 0, 0, 0, 0, 0, 0],[0, 0, 0, 0, 0, 0, 0, -1, 0, 22509, 0, 0, 7660, 0, 0, 0, 27929, 19066, 38066, 31211, 0, 0, 0, 0, 0, 0, 0, 0, 0, 0, 0, 0, 0, 0, 17077, 0, 0, 32884, 22541, 0, -715736085, 0, 0, 0, 0, 0, 0, 41563, 36053, 18306, 0, 0, 0, 33345, 13673, 0, 0, 27069, 0, 0, 0, 0, 26905, 0, 0, 0, 43939, 34677, 40176],[37577, 38739, 0, 0, 0, 0, 0, 0, -1, 0, 0, 654581803, 0, 1032884598, 37802, 0, 0, 0, 0, 0, 0, 0, 1808126950, 0, 0, 0, 0, 1809826826, 0, 0, 24814, 0, 0, 0, 0, 0, 893494270, 0, 0, 35385, 37057, 0, 0, 0, 0, 41524, 0, 0, 0, 0, 40465, 0, 0, 0, 29057, 43509, 0, 0, 40982, 1151646833, 0, 921709647, 41125, 21990, 0, 15220, 10568, 42512, 0],[0, 0, 22742, 0, 0, 0, 0, 22509, 0, -1, 42621, 0, 0, 0, 0, 0, 0, 0, 0, 0, 0, 10784, 0, 0, 0, 0, 0, 0, 0, 0, 0, 0, 41710, 0, 0, 0, 0, 0, 0, 0, 2045737812, 0, 0, 38547, 0, 0, 0, 0, 0, 33042, 31650, 0, 0, 0, 25187, 0, 0, 0, 0, 0, 0, 0, 0, 15863, 0, 0, 0, 0, 0],[0, 0, 0, 0, 0, 0, 0, 0, 0, 42621, -1, 0, 0, 0, 0, 0, 0, 0, 0, 0, 0, 0, 13925, 35437, 0, 0, 0, 0, 0, 42161, 0, 0, 30508, 38234, 0, 0, 0, 24485, 0, 0, 25936, 0, 0, 0, 0, 0, 25631, 32927, 0, 0, 0, 0, 43857, 0, 0, 0, 23328, 30730, 0, 0, 0, 33883, 28800, 0, 25528, 0, 32664, 0, 0],[0, 41138, 0, 27382, 0, 0, 0, 0, 654581803, 0, 0, -1, 0, 0, 12445, 0, 0, 0, 0, 0, 43051, 0, 37111, 44890, 0, 0, 0, 0, 22598, 0, 0, 1865052227, 0, 0, 0, 0, 38941, 0, 0, 42975, 35781, 12542, 32128, 22215, 0, 0, 0, 32196, 38504, 0, 0, 0, 0, 0, 0, 0, 41316, 44536, 0, 0, 0, 0, 41829, 0, 0, 0, 0, 0, 0],[0, 0, 0, 0, 32958, 36370, 0, 7660, 0, 0, 0, 0, -1, 25616, 0, 1268688097, 0, 0, 0, 0, 0, 0, 37874, 0, 0, 25967, 0, 0, 0, 0, 0, 16864, 0, 0, 0, 0, 44952, 0, 0, 46180, 0, 0, 0, 16938, 18979, 39127, 31757, 0, 0, 0, 0, 0, 0, 0, 45296, 0, 0, 42390, 0, 10034, 46048, 0, 0, 1781649974, 0, 0, 0, 0, 0],[0, 15493, 0, 0, 0, 0, 24839, 0, 1032884598, 0, 0, 0, 25616, -1, 0, 42330, 0, 0, 42291, 37738, 0, 0, 0, 0, 0, 41839, 0, 0, 0, 39970, 14236, 33593, 0, 0, 0, 0, 0, 15333, 0, 0, 25955, 0, 0, 37260, 0, -1903417133, 0, 0, 0, 0, 39868, 0, 0, 0, 0, 0, 33254, 0, 0, 0, 7812, 0, 0, 11264, 0, 0, 41371, 15402, 0],[0, 0, 36474, 0, 0, 9989, 43345, 0, 37802, 0, 0, 12445, 0, 0, -1, 0, 0, 0, 0, 0, 0, 0, 0, 0, 0, 0, 0, 0, 0, 0, 0, 41197, 31844, 0, 803371031, 0, 0, 0, 0, 0, 0, 0, 42021, 39033, 42534, 1982333939, 0, 0, 0, 0, 0, 0, 0, 0, 0, 25222, 45347, 23790, 159184812, 0, 1012669410, 0, 39131, 0, 0, 0, 0, 0, 0],[0, 0, 0, 0, 0, 24426, 41304, 0, 0, 0, 0, 0, 1268688097, 42330, 0, -1, 0, 0, 0, 0, 0, 0, 0, 0, 0, 0, 0, 15541, 0, 0, 43915, 29153, 0, 0, 44814, 0, 19423, 0, 0, 0, 0, 0, 40333, 21774, 2968, 44508, 0, 0, 0, 0, 0, 0, 0, 0, 0, 41258, 38509, 0, 0, 34947, 0, 0, 0, 0, 0, 0, 0, 0, 0],[0, 0, 38000, 0, 43253, 0, 39460, 27929, 0, 0, 0, 0, 0, 0, 0, 0, -1, 12076, 14331, 0, 0, 0, 0, 0, 0, 43886, 0, 0, 0, 0, 0, 35140, 32923, 0, 0, 0, 28029, 41133, 0, 0, 0, 29028, 0, 0, 0, 0, 0, 15592, 40801, 0, 0, 0, 0, 0, 0, 35657, 0, 0, 0, 0, 0, 0, 0, 44225, 687686672, 0, 0, 0, 0],[0, 0, 0, 1445505309, 0, -705146090, 0, 19066, 0, 0, 0, 0, 0, 0, 0, 0, 12076, -1, -1898148693, 0, 0, 0, 0, 0, 0, 37250, 0, 0, 0, 0, 0, 34778, 0, 0, 0, 0, 0, 21756, 0, 0, 0, 0, 0, 0, 35520, 0, 0, 0, 22203, 0, 0, -1085841414, 0, 0, 29835, 0, 42649, 0, 38988, 0, 0, 45786, 0, 16075, 0, 0, 0, 0, 0],[0, 0, 0, 44170, 0, 1987801098, 43590, 38066, 0, 0, 0, 0, 0, 42291, 0, 0, 14331, -1898148693, -1, 0, 0, 0, 0, 0, 0, 0, 0, 0, 24559, 25200, 0, 25543, 0, 0, 0, 0, 0, 0, 0, 0, 0, 0, 0, 0, 37479, 0, 20334, 0, 0, 0, 0, 0, 0, 0, 19275, 0, 0, 0, 46168, 0, 0, 0, 0, 0, 0, 0, 0, 0, 28511],[0, 0, 14505, 0, 0, 0, 0, 31211, 0, 0, 0, 0, 0, 37738, 0, 0, 0, 0, 0, -1, 0, 0, 0, 0, 0, 0, 39479, 32992, 1117043524, 0, 0, 0, 24378, 22562, 0, 22064, 31810, 33635, 26086, 0, 0, 0, 0, 0, 0, 40730, 0, 0, 0, 43059, 0, 2536, 12842, 27145, 0, 32388, 0, 16846, 0, 24601, 0, 0, 0, 27264, 0, 0, 0, 0, 0],[0, 0, 36822, 29128, 0, 33364, 15804, 0, 0, 0, 0, 43051, 0, 0, 0, 0, 0, 0, 0, 0, -1, 0, 0, 12184, 97678844, 43742, 17717, 0, 1694695008, 13756, 0, 36678, 27183, 0, 0, 0, 0, 650486758, 27459, 3681, 0, 0, 0, 0, 45326, 0, 0, 0, 0, 0, 19430, 12054, 0, 21351, 39223, 0, 43704, 0, 0, 0, 0, 0, 0, 0, 0, 0, 23421, 0, 0],[0, 0, 0, 45601, 20201, 0, 0, 0, 0, 10784, 0, 0, 0, 0, 0, 0, 0, 0, 0, 0, 0, -1, 38695, 44568, 0, 41157, 0, 37513, 39347, 21072, 0, 22363, 0, 31642, 0, 27355, 41025, 0, 0, 0, 0, 0, 0, 12492, 40782, 34855, 0, 0, 0, 0, 44348, 12585, 0, 9357, 29699, 0, 959531237, 0, 26631, 0, 0, 0, 0, 44553, 0, 0, 0, 0, 0],[31997, 0, 29391, 34136, 0, 0, 0, 0, 1808126950, 0, 13925, 37111, 37874, 0, 0, 0, 0, 0, 0, 0, 0, 38695, -1, 0, 0, 0, 0, 0, 0, 0, 0, 0, 0, 0, 45451, 0, 0, 0, 2054739237, 4387, 16670, 0, 0, 0, 0, 0, 379305911, 0, 0, 0, 0, 34885, 29972, 0, 0, 0, 0, 0, 12227, 0, 0, 0, 0, 15984, 0, 0, 0, 0, 0],[22608, 0, 0, 0, 0, 0, 25932, 0, 0, 0, 35437, 44890, 0, 0, 0, 0, 0, 0, 0, 0, 12184, 44568, 0, -1, 0, 43419, 0, 0, 0, 0, 0, 0, 0, 45554, 0, 0, 0, 0, 0, 0, 0, 0, 0, 0, 0, 21585, 40052, 0, 0, 41562, 0, 0, 17538, 39369, 0, 0, 0, 38959, 0, 0, 0, 0, 0, 0, 0, 0, 0, 0, 0],[0, 0, 0, 0, 0, 30276, 0, 0, 0, 0, 0, 0, 0, 0, 0, 0, 0, 0, 0, 0, 97678844, 0, 0, 0, -1, 0, 0, 0, 0, 42478, 0, 0, 0, 0, 0, 0, 0, 0, 30354, 0, 0, 0, 0, 0, 0, 0, 0, 0, 0, 46301, 0, 16987, 0, 0, 0, 0, 18170, 0, 43859, 39550, 0, 0, 0, 0, 0, 0, 21563, 0, 0],[0, 0, 0, 0, 0, 0, 0, 0, 0, 0, 0, 0, 25967, 41839, 0, 0, 43886, 37250, 0, 0, 43742, 41157, 0, 43419, 0, -1, 0, 42103, 43966, 0, 43005, 0, 0, 0, 0, 0, 0, 0, 0, 14072, 0, 45073, 0, 0, 0, 0, 35719, 32804, 0, 41859, 24038, 0, 0, 0, 0, 0, 0, 0, 0, 0, 2798, 37361, 19844, 27949, 0, 0, 0, 0, 0],[0, 0, 0, 0, 13084, 0, 0, 0, 0, 0, 0, 0, 0, 0, 0, 0, 0, 0, 0, 39479, 17717, 0, 0, 0, 0, 0, -1, 0, 1761025673, 0, 25635, 0, 0, 0, 0, 0, 0, 46328, 43051, 0, 27849, 0, 0, 0, 0, 0, 0, 29755, 0, 0, 0, 0, 0, 22416, 0, 40849, 0, 0, 0, 0, 0, 0, 14809, 0, 0, 28979, 0, 1984069555, 44126],[0, 33160, 0, 0, 0, 0, 0, 0, 1809826826, 0, 0, 0, 0, 0, 0, 15541, 0, 0, 0, 32992, 0, 37513, 0, 0, 0, 42103, 0, -1, 0, 0, 28010, 0, 0, 0, 0, 30524, 0, 0, 0, 0, 0, 19875, 0, 29190, 0, 0, 0, 0, 0, 0, 0, 0, 0, 0, 0, 0, 0, 38546, 32135, 0, 3892, 0, 0, 0, 0, 0, 36134, 0, 35501],[0, 0, 36301, 0, 29601, 0, 0, 0, 0, 0, 0, 22598, 0, 0, 0, 0, 0, 0, 24559, 1117043524, 1694695008, 39347, 0, 0, 0, 43966, 1761025673, 0, -1, 0, 0, 0, 0, 0, 39696, 0, 45415, 28579, 0, 0, 26598, 0, 0, 0, 0, 27936, 0, 0, 45033, 0, 0, 0, 34039, 0, 0, 16731, 0, 35934, 0, 0, 0, 0, 0, 0, 32229, 0, 0, 21477, 0],[0, 0, 0, 0, 0, 0, 0, 0, 0, 0, 42161, 0, 0, 39970, 0, 0, 0, 0, 25200, 0, 13756, 21072, 0, 0, 42478, 0, 0, 0, 0, -1, 0, 22142, 0, 925109691, 0, 0, 0, 0, 0, 0, 16186, 0, 0, 0, 0, 0, 0, 0, 0, 0, 0, 0, 0, 37422, 39078, 0, 0, 0, 0, 0, 0, 0, 25700, 0, 0, 0, 43642, 0, 45379],[0, 0, 0, 38740, 0, 0, 0, 0, 24814, 0, 0, 0, 0, 14236, 0, 43915, 0, 0, 0, 0, 0, 0, 0, 0, 0, 43005, 25635, 28010, 0, 0, -1, 0, 0, 0, 0, 0, 0, 32847, 0, 0, 0, 948636707, 0, 0, 13933, 0, 0, 42505, 0, 0, 0, 0, 0, 0, 0, 0, 40468, 0, 0, 0, 0, 0, 29182, 0, 13959, 0, 10647, 0, 39090],[0, 30165, 0, 33332, 0, 31203, 0, 0, 0, 0, 0, 1865052227, 16864, 33593, 41197, 29153, 35140, 34778, 25543, 0, 36678, 22363, 0, 0, 0, 0, 0, 0, 0, 22142, 0, -1, 0, 41023, 0, 0, 0, 0, 35070, 33455, 0, 0, 0, 46185, 0, 45301, 0, 0, 34758, 0, 0, 17429, 0, 567663933, 30821, 0, 0, 0, 0, 31436, 0, 0, 0, 0, 30620, 0, 0, 0, 0],[0, 0, 0, 0, 0, 38926, 0, 0, 0, 41710, 30508, 0, 0, 0, 31844, 0, 32923, 0, 0, 24378, 27183, 0, 0, 0, 0, 0, 0, 0, 0, 0, 0, 0, -1, 0, 41643, 0, 0, 0, 0, 44377, 43828, 42587, 0, 35634, 0, 0, 0, 0, 29112, 31555, 0, 0, 0, 0, 0, 28500, 37873, 0, 24033, 0, 0, 0, 42086, 0, 0, 24454, 44844, 21158, 13344],[25635, 0, 0, 0, 41185, 0, 1727478958, 0, 0, 0, 38234, 0, 0, 0, 0, 0, 0, 0, 0, 22562, 0, 31642, 0, 45554, 0, 0, 0, 0, 0, 925109691, 0, 41023, 0, -1, 0, 0, 0, 0, 0, 0, 0, 0, 0, 42312, 0, 42560, 0, 0, 0, 0, 0, 43780, 0, 0, 0, 35316, 28266, 0, 30576, 42490, 0, 35678, 0, 0, 0, 31061, 0, 0, 0],[0, 0, 0, 0, 0, 34061, 0, 17077, 0, 0, 0, 0, 0, 0, 803371031, 44814, 0, 0, 0, 0, 0, 0, 45451, 0, 0, 0, 0, 0, 39696, 0, 0, 0, 41643, 0, -1, 0, 33291, 42405, 23657, 0, 26671, 0, 0, 0, 40121, 0, 22903, 0, 39088, 0, 0, 0, 0, 0, 0, 37643, 0, 0, 14261, 0, 0, 23308, 0, 0, 0, 0, 0, 0, 0],[0, 7150, 0, 0, 0, 23948, 0, 0, 0, 0, 0, 0, 0, 0, 0, 0, 0, 0, 0, 22064, 0, 27355, 0, 0, 0, 0, 0, 30524, 0, 0, 0, 0, 0, 0, 0, -1, 0, 0, 0, 0, 0, 30943, 0, 0, 0, 0, 0, 25473, 0, 0, 0, 0, 43604, 0, 0, 38048, 0, 0, 0, 0, 37051, 0, 0, 24938, 0, 22214, 0, 0, 0],[0, 28064, 0, 20316, 0, 0, 44770, 0, 893494270, 0, 0, 38941, 44952, 0, 0, 19423, 28029, 0, 0, 31810, 0, 41025, 0, 0, 0, 0, 0, 0, 45415, 0, 0, 0, 0, 0, 33291, 0, -1, 0, 35421, 41186, 0, 0, 0, 0, 0, 0, 15751, 0, 0, 29258, 0, 0, 0, 0, 0, 0, 0, 0, 0, 39258, 0, 43606, 0, 0, 34588, 0, 40843, 39590, 0],[0, 0, 0, 0, 0, 35272, 0, 32884, 0, 0, 24485, 0, 0, 15333, 0, 0, 41133, 21756, 0, 33635, 650486758, 0, 0, 0, 0, 0, 46328, 0, 28579, 0, 32847, 0, 0, 0, 42405, 0, 0, -1, 0, 26982, 0, 29670, 0, 0, 9500, 0, 39822, 0, 0, 0, 0, 0, 0, 0, 42601, 0, 0, 0, 0, 0, 0, 0, 0, 0, 0, 37748, 44309, 0, 0],[33451, 0, 0, 15129, 0, 0, 0, 22541, 0, 0, 0, 0, 0, 0, 0, 0, 0, 0, 0, 26086, 27459, 0, 2054739237, 0, 30354, 0, 43051, 0, 0, 0, 0, 35070, 0, 0, 23657, 0, 35421, 0, -1, 8745, 0, 0, 0, 0, 0, 0, 0, 0, 24852, 0, 0, 0, 17556, 44176, 32082, 0, 0, 0, 0, 0, 0, 45802, 0, 0, 24098, 0, 0, 0, 1469871865],[44426, 0, 0, 0, 0, 0, 0, 0, 35385, 0, 0, 42975, 46180, 0, 0, 0, 0, 0, 0, 0, 3681, 0, 4387, 0, 0, 14072, 0, 0, 0, 0, 0, 33455, 44377, 0, 0, 0, 41186, 26982, 8745, -1, 0, 0, 0, 0, 0, 45527, 0, 0, 0, 0, 0, 0, 33156, 0, 0, 0, 0, 38687, 0, 41619, 0, 0, 0, 0, 38377, 0, 0, 0, 0],[0, 0, 1989291495, 45607, 0, 0, 0, -715736085, 37057, 2045737812, 25936, 35781, 0, 25955, 0, 0, 0, 0, 0, 0, 0, 0, 16670, 0, 0, 0, 27849, 0, 26598, 16186, 0, 0, 43828, 0, 26671, 0, 0, 0, 0, 0, -1, 0, 0, 0, 0, 0, 0, 0, 0, 29387, 0, 0, 0, 0, 0, 36230, 0, 0, 0, 0, 0, 0, 0, 44286, 0, 0, 0, 0, 0],[0, 0, 0, 31866, 0, 8789, 0, 0, 0, 0, 0, 12542, 0, 0, 0, 0, 29028, 0, 0, 0, 0, 0, 0, 0, 0, 45073, 0, 19875, 0, 0, 948636707, 0, 42587, 0, 0, 30943, 0, 29670, 0, 0, 0, -1, 0, 0, 0, 31436, 0, 44987, 0, 0, 0, 0, 0, 18448, 25046, 0, 0, 0, 0, 0, 0, 0, 0, 0, 0, 31273, 0, 0, 0],[0, 0, 0, 0, 0, 0, 0, 0, 0, 0, 0, 32128, 0, 0, 42021, 40333, 0, 0, 0, 0, 0, 0, 0, 0, 0, 0, 0, 0, 0, 0, 0, 0, 0, 0, 0, 0, 0, 0, 0, 0, 0, 0, -1, 0, 34783, 0, 0, 0, 0, 0, 42345, 0, 44041, 0, 12023, 0, 0, 23998, 0, 0, 24331, 0, 0, 0, 0, 12085, 0, 13758, 9183],[25421, 0, 0, 0, 0, 0, 0, 0, 0, 38547, 0, 22215, 16938, 37260, 39033, 21774, 0, 0, 0, 0, 0, 12492, 0, 0, 0, 0, 0, 29190, 0, 0, 0, 46185, 35634, 42312, 0, 0, 0, 0, 0, 0, 0, 0, 0, -1, 0, 0, 43659, 0, 0, 0, 0, 0, 0, 0, 0, 0, 0, 18857, 0, 0, 33648, 24418, 0, 0, 20192, 0, 0, 0, 0],[0, 0, 0, 0, 0, 17896, 0, 0, 0, 0, 0, 0, 18979, 0, 42534, 2968, 0, 35520, 37479, 0, 45326, 40782, 0, 0, 0, 0, 0, 0, 0, 0, 13933, 0, 0, 0, 40121, 0, 0, 9500, 0, 0, 0, 0, 34783, 0, -1, 32857, 0, 41785, 0, 0, 0, 33589, 0, 0, 0, 33348, 29765, 0, 0, 0, 0, 0, 0, 0, 0, 0, 13591, 0, 0],[0, 0, 0, 0, 0, 0, 0, 0, 41524, 0, 0, 0, 39127, -1903417133, 1982333939, 44508, 0, 0, 0, 40730, 0, 34855, 0, 21585, 0, 0, 0, 0, 27936, 0, 0, 45301, 0, 42560, 0, 0, 0, 0, 0, 45527, 0, 31436, 0, 0, 32857, -1, 0, 0, 0, 0, 0, 5427, 0, 37366, 23620, 12253, 0, 0, 0, 26886, 37851, 0, 0, 0, 0, 14493, 0, 0, 0],[0, 0, 29102, 0, 0, 0, 25972, 0, 0, 0, 25631, 0, 31757, 0, 0, 0, 0, 0, 20334, 0, 0, 0, 379305911, 40052, 0, 35719, 0, 0, 0, 0, 0, 0, 0, 0, 22903, 0, 15751, 39822, 0, 0, 0, 0, 0, 43659, 0, 0, -1, 0, 0, 36979, 12959, 0, 0, 0, 0, 0, 0, 0, 0, 0, 0, 45755, 0, 0, 0, 40323, 29521, 0, 0],[20110, 0, 0, 0, 39145, 0, 0, 41563, 0, 0, 32927, 32196, 0, 0, 0, 0, 15592, 0, 0, 0, 0, 0, 0, 0, 0, 32804, 29755, 0, 0, 0, 42505, 0, 0, 0, 0, 25473, 0, 0, 0, 0, 0, 44987, 0, 0, 41785, 0, 0, -1, 0, 0, 0, 0, 7523, 0, 0, 0, 0, 0, 39662, 0, 19603, 31290, 44449, 0, 0, 0, 611641677, 43591, 0],[26127, 0, 38941, 0, 0, 0, 859319257, 36053, 0, 0, 0, 38504, 0, 0, 0, 0, 40801, 22203, 0, 0, 0, 0, 0, 0, 0, 0, 0, 0, 45033, 0, 0, 34758, 29112, 0, 39088, 0, 0, 0, 24852, 0, 0, 0, 0, 0, 0, 0, 0, 0, -1, 0, 0, 0, 0, 0, 0, 0, 0, 0, 12306, 0, 0, 0, 0, 0, 0, 0, 15123, 0, 0],[0, 0, 0, 0, 12635, 0, 0, 18306, 0, 33042, 0, 0, 0, 0, 0, 0, 0, 0, 0, 43059, 0, 0, 0, 41562, 46301, 41859, 0, 0, 0, 0, 0, 0, 31555, 0, 0, 0, 29258, 0, 0, 0, 29387, 0, 0, 0, 0, 0, 36979, 0, 0, -1, 0, 0, 0, 0, 0, 0, 0, 1612597975, 0, 0, 32791, 44476, 30758, 32800, 0, 0, 0, 0, 43537],[0, 0, 0, 0, 0, 0, 0, 0, 40465, 31650, 0, 0, 0, 39868, 0, 0, 0, 0, 0, 0, 19430, 44348, 0, 0, 0, 24038, 0, 0, 0, 0, 0, 0, 0, 0, 0, 0, 0, 0, 0, 0, 0, 0, 42345, 0, 0, 0, 12959, 0, 0, 0, -1, 0, 0, 0, 0, 0, 0, 0, 0, 0, 0, 0, 0, 0, 0, 43744, 0, 0, 30185],[0, 0, 0, 14771, 33622, 0, 0, 0, 0, 0, 0, 0, 0, 0, 0, 0, 0, -1085841414, 0, 2536, 12054, 12585, 34885, 0, 16987, 0, 0, 0, 0, 0, 0, 17429, 0, 43780, 0, 0, 0, 0, 0, 0, 0, 0, 0, 0, 33589, 5427, 0, 0, 0, 0, 0, -1, 27376, 0, 19677, 0, 11276, 0, 0, 0, 24432, 30806, 0, 0, 0, 0, 37772, 0, 0],[0, 0, 0, 0, 0, 0, 38034, 0, 0, 0, 43857, 0, 0, 0, 0, 0, 0, 0, 0, 12842, 0, 0, 29972, 17538, 0, 0, 0, 0, 34039, 0, 0, 0, 0, 0, 0, 43604, 0, 0, 17556, 33156, 0, 0, 44041, 0, 0, 0, 0, 7523, 0, 0, 0, 27376, -1, 43683, 0, 0, 21433, 0, 0, 0, 20746, 0, 0, 0, 0, 44508, 0, 0, 19119],[0, 10518, 38204, 0, 0, 0, 0, 33345, 0, 0, 0, 0, 0, 0, 0, 0, 0, 0, 0, 27145, 21351, 9357, 0, 39369, 0, 0, 22416, 0, 0, 37422, 0, 567663933, 0, 0, 0, 0, 0, 0, 44176, 0, 0, 18448, 0, 0, 0, 37366, 0, 0, 0, 0, 0, 0, 43683, -1, 0, 0, 0, 24047, 0, 0, 34546, 0, 0, 0, 0, 0, 0, 0, 0],[26054, 0, 0, 0, 0, 0, 0, 13673, 29057, 25187, 0, 0, 45296, 0, 0, 0, 0, 29835, 19275, 0, 39223, 29699, 0, 0, 0, 0, 0, 0, 0, 39078, 0, 30821, 0, 0, 0, 0, 0, 42601, 32082, 0, 0, 25046, 12023, 0, 0, 23620, 0, 0, 0, 0, 0, 19677, 0, 0, -1, 0, 0, 0, 0, 0, 0, 0, 0, 0, 0, 0, 24982, 45428, 0],[0, 0, 0, 29798, 0, 0, 0, 0, 43509, 0, 0, 0, 0, 0, 25222, 41258, 35657, 0, 0, 32388, 0, 0, 0, 0, 0, 0, 40849, 0, 16731, 0, 0, 0, 28500, 35316, 37643, 38048, 0, 0, 0, 0, 36230, 0, 0, 0, 33348, 12253, 0, 0, 0, 0, 0, 0, 0, 0, 0, -1, 0, 0, 0, 0, 0, 43245, 0, 0, 44437, 39205, 45569, 0, 0],[0, 0, 0, 0, 39449, 32968, 0, 0, 0, 0, 23328, 41316, 0, 33254, 45347, 38509, 0, 42649, 0, 0, 43704, 959531237, 0, 0, 18170, 0, 0, 0, 0, 0, 40468, 0, 37873, 28266, 0, 0, 0, 0, 0, 0, 0, 0, 0, 0, 29765, 0, 0, 0, 0, 0, 0, 11276, 21433, 0, 0, 0, -1, 0, 0, 0, 0, 7136, 0, 0, 0, 0, 0, 0, 0],[0, 0, 0, 0, 156427837, 0, 0, 27069, 0, 0, 30730, 44536, 42390, 0, 23790, 0, 0, 0, 0, 16846, 0, 0, 0, 38959, 0, 0, 0, 38546, 35934, 0, 0, 0, 0, 0, 0, 0, 0, 0, 0, 38687, 0, 0, 23998, 18857, 0, 0, 0, 0, 0, 1612597975, 0, 0, 0, 24047, 0, 0, 0, -1, 0, 0, 0, 0, 40343, 0, 0, 0, 0, 0, 0],[0, 0, 27420, 0, 0, 0, 0, 0, 40982, 0, 0, 0, 0, 0, 159184812, 0, 0, 38988, 46168, 0, 0, 26631, 12227, 0, 43859, 0, 0, 32135, 0, 0, 0, 0, 24033, 30576, 14261, 0, 0, 0, 0, 0, 0, 0, 0, 0, 0, 0, 0, 39662, 12306, 0, 0, 0, 0, 0, 0, 0, 0, 0, -1, 0, 0, 34735, 0, 33183, 0, 0, 0, 14174, 39747],[11243, 0, 0, 0, 38461, 27931, 0, 0, 1151646833, 0, 0, 0, 10034, 0, 0, 34947, 0, 0, 0, 24601, 0, 0, 0, 0, 39550, 0, 0, 0, 0, 0, 0, 31436, 0, 42490, 0, 0, 39258, 0, 0, 41619, 0, 0, 0, 0, 0, 26886, 0, 0, 0, 0, 0, 0, 0, 0, 0, 0, 0, 0, 0, -1, 30229, 0, 0, 0, 0, 0, 0, 0, 0],[0, 0, 39332, 0, 0, 0, 0, 0, 0, 0, 0, 0, 46048, 7812, 1012669410, 0, 0, 0, 0, 0, 0, 0, 0, 0, 0, 2798, 0, 3892, 0, 0, 0, 0, 0, 0, 0, 37051, 0, 0, 0, 0, 0, 0, 24331, 33648, 0, 37851, 0, 19603, 0, 32791, 0, 24432, 20746, 34546, 0, 0, 0, 0, 0, 30229, -1, 0, 0, 0, 0, 0, 0, 0, 0],[0, 39928, 0, 0, 0, 0, 0, 0, 921709647, 0, 33883, 0, 0, 0, 0, 0, 0, 45786, 0, 0, 0, 0, 0, 0, 0, 37361, 0, 0, 0, 0, 0, 0, 0, 35678, 23308, 0, 43606, 0, 45802, 0, 0, 0, 0, 24418, 0, 0, 45755, 31290, 0, 44476, 0, 30806, 0, 0, 0, 43245, 7136, 0, 34735, 0, 0, -1, 0, 0, 0, 0, 0, 31391, 0],[0, 0, 0, 45026, 0, 1827847339, 0, 26905, 41125, 0, 28800, 41829, 0, 0, 39131, 0, 0, 0, 0, 0, 0, 0, 0, 0, 0, 19844, 14809, 0, 0, 25700, 29182, 0, 42086, 0, 0, 0, 0, 0, 0, 0, 0, 0, 0, 0, 0, 0, 0, 44449, 0, 30758, 0, 0, 0, 0, 0, 0, 0, 40343, 0, 0, 0, 0, -1, 0, 0, 34362, 0, 0, 0],[0, 0, 0, 0, 43839, 0, 0, 0, 21990, 15863, 0, 0, 1781649974, 11264, 0, 0, 44225, 16075, 0, 27264, 0, 44553, 15984, 0, 0, 27949, 0, 0, 0, 0, 0, 0, 0, 0, 0, 24938, 0, 0, 0, 0, 44286, 0, 0, 0, 0, 0, 0, 0, 0, 32800, 0, 0, 0, 0, 0, 0, 0, 0, 33183, 0, 0, 0, 0, -1, 0, 0, 0, 0, 29145],[0, 0, 33530, 21703, 0, 0, 0, 0, 0, 0, 25528, 0, 0, 0, 0, 0, 687686672, 0, 0, 0, 0, 0, 0, 0, 0, 0, 0, 0, 32229, 0, 13959, 30620, 0, 0, 0, 0, 34588, 0, 24098, 38377, 0, 0, 0, 20192, 0, 0, 0, 0, 0, 0, 0, 0, 0, 0, 0, 44437, 0, 0, 0, 0, 0, 0, 0, 0, -1, 33284, 0, 0, 22427],[0, 24699, 0, 0, 0, 0, 0, 0, 15220, 0, 0, 0, 0, 0, 0, 0, 0, 0, 0, 0, 0, 0, 0, 0, 0, 0, 28979, 0, 0, 0, 0, 0, 24454, 31061, 0, 22214, 0, 37748, 0, 0, 0, 31273, 12085, 0, 0, 14493, 40323, 0, 0, 0, 43744, 0, 44508, 0, 0, 39205, 0, 0, 0, 0, 0, 0, 34362, 0, 33284, -1, 0, 0, 0],[0, 0, 0, 0, 34041, 0, 0, 43939, 10568, 0, 32664, 0, 0, 41371, 0, 0, 0, 0, 0, 0, 23421, 0, 0, 0, 21563, 0, 0, 36134, 0, 43642, 10647, 0, 44844, 0, 0, 0, 40843, 44309, 0, 0, 0, 0, 0, 0, 13591, 0, 29521, 611641677, 15123, 0, 0, 37772, 0, 0, 24982, 45569, 0, 0, 0, 0, 0, 0, 0, 0, 0, 0, -1, 0, 0],[0, 0, 0, 0, 22485, 0, 0, 34677, 42512, 0, 0, 0, 0, 15402, 0, 0, 0, 0, 0, 0, 0, 0, 0, 0, 0, 0, 1984069555, 0, 21477, 0, 0, 0, 21158, 0, 0, 0, 39590, 0, 0, 0, 0, 0, 13758, 0, 0, 0, 0, 43591, 0, 0, 0, 0, 0, 0, 45428, 0, 0, 0, 14174, 0, 0, 31391, 0, 0, 0, 0, 0, -1, 0],[42890, 0, 26941, 0, 0, 0, 0, 40176, 0, 0, 0, 0, 0, 0, 0, 0, 0, 0, 28511, 0, 0, 0, 0, 0, 0, 0, 44126, 35501, 0, 45379, 39090, 0, 13344, 0, 0, 0, 0, 0, 1469871865, 0, 0, 0, 9183, 0, 0, 0, 0, 0, 0, 43537, 30185, 0, 19119, 0, 0, 0, 0, 0, 39747, 0, 0, 0, 0, 29145, 22427, 0, 0, 0, -1]]